17	4
18	20	18	21	
0	0	0	0	0	3	2	3	4	
3	0	0	0	9	3	10	15	17	
1	0	2	0	0	3	11	13	17	
3	10	5	0	9	3	5	6	7	
1	2	0	2	3	3	16	17	17	
150	5	3	1	0	3	8	9	12	
50	1	9	3	7	1	10	
225	0	6	10	0	1	16	
125	0	0	6	0	3	14	17	17	
200	7	4	0	1	2	11	17	
250	0	3	0	7	2	17	17	
50	0	6	0	7	3	16	17	17	
3	8	0	9	0	1	17	
5	0	6	5	0	2	17	17	
1	0	4	0	0	2	17	17	
7	0	0	2	7	3	17	17	17	
0	0	0	0	0	0	
